1059.0
True
[[46, 118, 17, 18, 19, 130, 65, 119, 117, 131, 115, 114, 116, 113, 129, 128, 121, 120, 109, 108, 107, 106, 127, 126, 112, 81, 132, 111, 110, 122, 123, 125, 124, 71, 66, 72, 47, 75, 1, 48, 32, 134, 74, 76, 77, 64, 78, 63, 79, 67, 133, 33, 80, 68, 69, 70, 34, 49, 62, 50, 51, 52, 53, 54, 55, 56, 57, 58, 105, 103, 104, 100, 96, 37, 95, 40, 41, 3, 42, 2, 4, 5, 6, 7, 9, 8, 10, 12, 11, 13, 15, 14, 88, 16, 89, 87, 86, 83, 84, 85, 90, 43, 44, 38, 39, 45, 93, 94, 98, 97, 99, 36, 35, 101, 102, 61, 60, 59, 31, 30, 28, 27, 26, 25, 21, 20, 82, 91, 22, 23, 24, 29, 92, 73]] 1059.0
